983	701
980	866
976	972
973	1041
970	1072
966	1100
963	1175
959	1242
952	1251
949	1285
946	1357
939	1359
938	1364
932	1371
930	1372
929	1413
928	1438
927	1469
921	1543
905	1558
900	1565
893	1574
884	1580
883	1651
